
  32    4
  10   10   10   10

   0   0   0   0   0   2 2 10 
   9   0   1   1   1   1 3 
   5   0   3   3   2   1 4 
   4   0   5   3   6   1 5 
   7   0   4   4   2   1 6 
   5   1   4   3   0   1 7 
   1   0   4   4   6   1 8 
   1   5   6   0   4   1 9 
   6   0   5   3   2   1 11 
   7   0   4   5   4   1 11 
   6   1   3   0   5   1 12 
   1   3   4   5   0   1 13 
   7   0   5   7   6   1 14 
   3   0   5   5   3   1 15 
   3   2   8   2   0   1 16 
   6   8   3   4   0   1 17 
   5   5   0   3   5   2 22 18 
   2   5   3   3   0   1 19 
   4   4   3   3   0   1 20 
   2   0   3   4   2   2 25 21 
   6   5   0   8   4   2 29 23 
   4   0   3   5   3   3 29 28 25 
   5   0   6   3   9   2 28 24 
   7   4   0   3   3   1 26 
  10   0   3   8   2   1 26 
  10   4   7   0   2   1 27 
   7   2   0   2   6   1 30 
   7   6   0   5   7   1 31 
   7   5   1   5   0   1 30 
   4   5   0   5   4   1 32
   9   3   3   2   0   1 32
   0   0   0   0   0   0 
